000 000 000 000 000 000 -99 000 -99 -99 000 000 000 000 000 000 -99 -99 000 000 000 000 000 000 000 000 000 000 -99 -99 000
000 000 000 000 000 000 -99 000 -99 -99 -99 -99 -99 -99 000 000 000 -99 -99 000 000 000 000 000 000 000 000 000 -99 -99 -99
000 000 000 000 000 000 000 000 000 000 -99 -99 -99 -99 000 000 000 000 000 000 000 000 000 000 000 000 000 000 000 -99 -99
000 000 000 000 000 000 000 000 000 000 000 -99 -99 -99 000 000 000 000 000 000 000 000 000 000 000 000 000 000 000 -99 -99
000 000 000 000 000 -99 -99 -99 -99 000 000 -99 -99 000 000 000 -99 000 000 000 000 000 000 000 000 000 000 000 000 -99 -99
000 000 -99 -99 -99 -99 000 -99 000 000 -99 -99 000 -99 -99 -99 -99 000 000 -99 000 000 000 000 000 000 -99 000 -99 -99 -99
000 000 000 000 -99 -99 000 -99 000 000 000 -99 -99 000 000 -99 -99 -99 -99 -99 000 000 000 000 000 000 -99 -99 -99 -99 -99
-99 000 000 000 -99 -99 -99 -99 -99 000 -99 -99 000 000 000 -99 -99 -99 -99 -99 000 000 000 000 000 000 -99 -99 -99 000 -99
-99 -99 000 -99 -99 -99 -99 -99 -99 000 000 000 000 -99 000 000 -99 000 000 -99 000 000 000 000 000 000 -99 -99 -99 000 000
-99 -99 -99 -99 000 -99 -99 -99 -99 -99 000 000 000 -99 000 000 000 000 000 -99 000 000 -99 -99 000 000 000 000 000 000 000
-99 -99 -99 000 000 -99 -99 -99 -99 -99 000 000 000 000 000 000 000 000 000 000 -99 -99 -99 000 000 000 000 000 000 000 000
000 000 -99 -99 000 000 -99 000 -99 000 000 -99 000 000 000 000 000 000 000 -99 -99 -99 -99 000 000 000 000 000 000 000 000
000 000 -99 -99 000 000 000 000 -99 000 000 000 000 000 000 000 000 -99 -99 000 -99 000 -99 000 000 000 000 000 000 000 000
000 -99 000 000 000 000 000 000 000 -99 000 000 000 000 -99 000 000 -99 000 000 -99 -99 -99 000 000 000 000 000 000 000 -99
-99 -99 -99 -99 000 000 000 000 000 -99 000 000 000 000 000 000 000 000 000 000 -99 -99 -99 000 000 000 000 000 000 000 000
-99 -99 -99 -99 000 000 000 000 000 -99 -99 -99 000 -99 000 000 000 000 000 -99 -99 -99 000 000 000 -99 000 000 000 000 -99
-99 -99 -99 -99 -99 000 000 000 000 -99 -99 -99 -99 -99 000 000 000 000 000 -99 -99 -99 000 000 000 000 000 000 000 000 000
000 -99 -99 -99 -99 000 000 000 000 000 -99 -99 -99 -99 -99 000 000 000 000 -99 -99 -99 000 -99 000 000 -99 000 000 000 000
000 000 000 -99 -99 -99 -99 000 000 000 -99 -99 -99 -99 -99 -99 000 000 -99 -99 -99 000 000 -99 000 -99 -99 000 000 000 -99
000 000 000 -99 -99 -99 -99 000 000 000 -99 000 -99 -99 -99 000 000 000 000 000 000 000 000 -99 000 -99 -99 -99 -99 -99 -99
000 000 000 000 000 -99 -99 000 000 000 000 000 -99 -99 -99 000 000 000 000 000 000 000 000 -99 -99 -99 -99 -99 -99 -99 -99
000 000 000 000 000 -99 -99 000 000 000 000 000 -99 -99 -99 000 000 000 000 000 000 000 000 -99 -99 -99 -99 -99 -99 -99 -99
000 000 000 000 000 000 000 000 000 000 -99 000 -99 -99 000 000 000 000 000 000 000 000 000 -99 -99 -99 -99 -99 -99 -99 -99
000 000 000 000 000 000 000 000 000 000 -99 -99 -99 -99 000 000 000 000 000 000 000 000 000 -99 -99 -99 -99 -99 -99 000 000
000 000 000 000 000 000 000 000 000 000 -99 -99 -99 000 000 000 000 000 000 000 000 000 -99 -99 -99 -99 -99 -99 -99 000 000
000 000 000 000 000 000 000 000 000 000 -99 -99 -99 000 000 000 000 000 000 -99 000 -99 -99 -99 -99 -99 -99 -99 -99 000 000
000 000 000 000 000 000 000 000 000 000 -99 -99 -99 000 000 000 000 000 000 -99 -99 000 -99 -99 -99 -99 -99 -99 -99 000 000
000 000 000 000 000 000 000 000 000 000 -99 -99 -99 -99 000 000 000 000 000 000 000 000 -99 -99 -99 -99 -99 006 -99 000 000
000 000 000 000 000 000 000 000 000 000 -99 -99 -99 000 000 000 000 000 000 000 000 000 -99 -99 -99 -99 004 006 -99 -99 000
000 000 000 000 000 000 000 000 000 000 000 -99 -99 000 000 000 000 -99 000 000 000 000 -99 -99 -99 -99 004 -99 -99 -99 -99
000 000 000 000 000 000 000 000 000 000 000 -99 -99 000 000 000 -99 -99 000 000 000 000 -99 -99 -99 -99 -99 -99 -99 -99 -99
000 000 000 000 000 000 -99 -99 000 000 -99 -99 -99 000 000 000 000 000 000 -99 -99 -99 -99 -99 000 000 -99 -99 000 -99 000
000 000 000 000 000 000 -99 000 000 000 -99 -99 -99 -99 000 -99 000 000 000 -99 -99 000 000 000 000 000 -99 000 -99 -99 000
000 000 000 000 000 000 -99 000 000 000 -99 -99 -99 -99 000 000 000 000 -99 -99 -99 000 000 000 000 000 000 000 000 000 000
000 000 000 000 000 000 000 000 000 -99 -99 000 000 -99 000 000 000 000 -99 000 000 000 000 000 000 000 000 000 000 000 000
000 000 000 000 000 000 000 000 000 000 -99 000 000 -99 000 000 000 000 000 000 000 000 -99 000 000 000 000 000 000 000 000
000 000 000 000 000 -99 000 000 000 -99 -99 -99 000 000 000 000 000 000 000 000 000 000 -99 000 -99 -99 000 000 000 000 000
000 000 -99 000 000 -99 000 000 000 -99 -99 000 000 000 000 000 000 000 000 -99 000 000 -99 -99 -99 000 000 000 000 000 000
000 000 000 000 000 000 -99 -99 -99 -99 -99 000 000 000 000 000 000 000 -99 000 000 000 -99 -99 -99 000 000 000 000 000 -99
000 000 000 000 000 -99 -99 -99 -99 -99 -99 000 000 -99 000 000 000 000 -99 -99 000 -99 -99 -99 000 000 000 -99 000 000 -99
000 000 000 000 000 -99 -99 -99 -99 -99 000 000 000 000 000 000 000 -99 -99 -99 -99 -99 -99 -99 -99 000 000 -99 -99 -99 -99
000 000 -99 000 -99 -99 -99 000 -99 -99 000 000 000 000 000 000 -99 -99 -99 -99 -99 -99 -99 -99 000 000 -99 -99 -99 -99 -99
-99 -99 -99 -99 -99 000 -99 000 -99 000 000 -99 000 -99 000 000 000 000 -99 -99 -99 000 -99 -99 000 000 -99 -99 -99 -99 -99
-99 -99 -99 -99 -99 000 -99 -99 -99 -99 -99 000 000 -99 000 000 000 000 000 -99 -99 000 000 -99 000 000 -99 -99 -99 -99 -99
-99 -99 -99 -99 -99 -99 -99 -99 -99 000 000 000 000 -99 000 000 000 -99 000 000 -99 -99 -99 -99 000 -99 -99 -99 -99 -99 -99
-99 -99 -99 -99 -99 -99 -99 -99 000 000 000 000 000 -99 000 000 000 000 000 000 -99 -99 -99 -99 -99 -99 -99 -99 -99 -99 -99
-99 -99 -99 -99 -99 -99 -99 000 000 -99 000 000 000 -99 000 -99 -99 -99 000 000 -99 -99 -99 -99 -99 -99 000 -99 -99 -99 -99
-99 -99 -99 -99 -99 -99 -99 000 000 000 000 000 000 -99 -99 -99 -99 000 -99 -99 -99 -99 -99 -99 -99 -99 000 -99 -99 -99 -99
-99 -99 -99 -99 -99 -99 000 000 000 000 000 000 -99 -99 -99 -99 -99 -99 -99 -99 -99 000 000 -99 -99 -99 -99 000 -99 -99 -99
-99 -99 -99 -99 -99 -99 000 003 002 000 000 000 000 -99 -99 000 000 000 000 -99 -99 000 -99 -99 -99 -99 000 000 -99 -99 -99
-99 -99 -99 -99 -99 000 001 015 005 002 001 000 000 000 001 000 000 000 000 000 000 000 -99 -99 -99 -99 000 -99 -99 -99 -99
-99 -99 -99 -99 -99 000 002 021 018 004 002 001 000 000 001 002 001 000 000 000 -99 -99 -99 -99 -99 -99 -99 -99 -99 -99 -99
-99 -99 -99 -99 -99 000 002 018 043 016 002 001 001 014 007 023 002 001 000 000 -99 -99 -99 -99 -99 -99 -99 -99 -99 -99 -99
-99 -99 -99 -99 000 000 010 040 062 022 005 002 012 019 021 011 008 002 001 000 -99 -99 -99 -99 -99 -99 -99 -99 -99 -99 -99
-99 -99 -99 -99 000 000 005 014 033 006 006 006 010 018 012 008 009 004 000 000 -99 -99 -99 -99 -99 -99 -99 -99 -99 -99 -99
